NAME : morphed22-2-13
COMMENT : Generated using the function morphInstances from the R-package netgen (Bossek,2015) - Number of clusters: 2 Alpha: 0.5
TYPE : TSP
DIMENSION : 22
EDGE_WEIGHT_TYPE : EUC_2D
NODE_COORD_SECTION
1 61.7809894718 72.3782633922
2 22.7189241997 50.4682983009
3 32.2743997374 20.2655558298
4 14.0494048327 53.9317139332
5 61.3405524857 20.5882962441
6 8.5549366965 44.1563615409
7 46.3191230448 38.9898813734
8 64.4283103122 69.0937320276
9 69.7570253959 58.6419190986
10 10.6723546307 40.0888247477
11 62.4646738398 90.9057164174
12 72.3157198558 84.6878314679
13 71.0012953379 64.214088766
14 44.273313226 22.1897027946
15 53.5286858108 55.2755087081
16 28.8377180139 15.9731520039
17 42.2832123338 74.302847431
18 41.4743032515 21.1264829036
19 71.6557050544 72.1452731577
20 50.4425408947 30.7036612458
21 34.6324749453 93.2265425892
22 53.1376810541 67.0165510356
EOF
